p cnf 36 605
32 16 0
-12 0
-26 0
-22 0
-36 0
-16 -32 0
-11 -14 0
-26 -14 0
-14 -24 0
-14 -36 0
-14 -31 0
-11 -24 0
-26 -24 0
-24 -36 0
-24 -31 0
-11 -36 0
-26 -36 0
-31 -36 0
-11 -31 0
-26 -31 0
-11 -26 0
36 31 24 14 26 11 0
26 22 10 0 
32 30 22 10 0 
32 30 -26 10 0 
26 -32 10 0 
-22 30 10 0 
26 30 10 0 
32 30 10 0 
-10 -30 0 
26 22 -30 0 
26 -32 -30 0 
-30 -32 0 
-26 -32 22 -10 0 
-26 -32 -10 0 
32 26 22 0 
32 30 22 26 0 
-22 -26 0 
-26 -32 -22 0 
32 30 -26 -22 0 
-22 -32 0 
-26 -32 -22 30 0 
32 30 26 22 0
-17 0
-13 0
-18 0
-27 0
-23 0
-28 0
-37 0
-33 0
-38 0
20 10 0
-10 -20 0
-30 0
10 11 12 14 16 0
20 21 22 24 26 0
30 31 32 34 36 0
-22 -10 -30 -11 -24 -31 0
-26 -10 -30 -11 -24 -31 0
-22 -14 -30 -11 -24 -31 0
-26 -14 -30 -11 -24 -31 0
-22 -10 -32 -11 -24 -31 0
-26 -10 -32 -11 -24 -31 0
-22 -14 -32 -11 -24 -31 0
-26 -14 -32 -11 -24 -31 0
-22 11 -30 14 10 -24 -31 0
-26 11 -30 14 10 -24 -31 0
-22 11 -32 14 10 -24 -31 0
-26 11 -32 14 10 -24 -31 0
-22 -10 -30 -14 -24 -31 0
-26 -10 -30 -14 -24 -31 0
-22 11 -30 -10 -14 -24 -31 0
-26 11 -30 -10 -14 -24 -31 0
-22 -14 -30 -10 -24 -31 0
-26 -14 -30 -10 -24 -31 0
-22 -10 -32 -14 -24 -31 0
-26 -10 -32 -14 -24 -31 0
-22 11 -32 -10 -14 -24 -31 0
-26 11 -32 -10 -14 -24 -31 0
-22 -14 -32 -10 -24 -31 0
-26 -14 -32 -10 -24 -31 0
24 -10 -30 -11 26 22 -31 0
24 -14 -30 -11 26 22 -31 0
24 -10 -32 -11 26 22 -31 0
24 -14 -32 -11 26 22 -31 0
24 11 -30 14 10 26 22 -31 0
24 11 -32 14 10 26 22 -31 0
24 -10 -30 -14 26 22 -31 0
24 11 -30 -10 -14 26 22 -31 0
24 -14 -30 -10 26 22 -31 0
24 -10 -32 -14 26 22 -31 0
24 11 -32 -10 -14 26 22 -31 0
24 -14 -32 -10 26 22 -31 0
-22 -10 -30 -11 -26 -31 0
24 -10 -30 -11 -22 -26 -31 0
-26 -10 -30 -11 -22 -31 0
-22 -14 -30 -11 -26 -31 0
24 -14 -30 -11 -22 -26 -31 0
-26 -14 -30 -11 -22 -31 0
-22 -10 -32 -11 -26 -31 0
24 -10 -32 -11 -22 -26 -31 0
-26 -10 -32 -11 -22 -31 0
-22 -14 -32 -11 -26 -31 0
24 -14 -32 -11 -22 -26 -31 0
-26 -14 -32 -11 -22 -31 0
-22 11 -30 14 10 -26 -31 0
24 11 -30 14 10 -22 -26 -31 0
-26 11 -30 14 10 -22 -31 0
-22 11 -32 14 10 -26 -31 0
24 11 -32 14 10 -22 -26 -31 0
-26 11 -32 14 10 -22 -31 0
-22 -10 -30 -14 -26 -31 0
24 -10 -30 -14 -22 -26 -31 0
-26 -10 -30 -14 -22 -31 0
-22 11 -30 -10 -14 -26 -31 0
24 11 -30 -10 -14 -22 -26 -31 0
-26 11 -30 -10 -14 -22 -31 0
-22 -14 -30 -10 -26 -31 0
24 -14 -30 -10 -22 -26 -31 0
-26 -14 -30 -10 -22 -31 0
-22 -10 -32 -14 -26 -31 0
24 -10 -32 -14 -22 -26 -31 0
-26 -10 -32 -14 -22 -31 0
-22 11 -32 -10 -14 -26 -31 0
24 11 -32 -10 -14 -22 -26 -31 0
-26 11 -32 -10 -14 -22 -31 0
-22 -14 -32 -10 -26 -31 0
24 -14 -32 -10 -22 -26 -31 0
-26 -14 -32 -10 -22 -31 0
-22 -10 31 -11 -24 32 30 0
-26 -10 31 -11 -24 32 30 0
-22 -14 31 -11 -24 32 30 0
-26 -14 31 -11 -24 32 30 0
-22 11 31 14 10 -24 32 30 0
-26 11 31 14 10 -24 32 30 0
-22 -10 31 -14 -24 32 30 0
-26 -10 31 -14 -24 32 30 0
-22 11 31 -10 -14 -24 32 30 0
-26 11 31 -10 -14 -24 32 30 0
-22 -14 31 -10 -24 32 30 0
-26 -14 31 -10 -24 32 30 0
24 -10 31 -11 26 22 32 30 0
24 -14 31 -11 26 22 32 30 0
24 11 31 14 10 26 22 32 30 0
24 -10 31 -14 26 22 32 30 0
24 11 31 -10 -14 26 22 32 30 0
24 -14 31 -10 26 22 32 30 0
-22 -10 31 -11 -26 32 30 0
24 -10 31 -11 -22 -26 32 30 0
-26 -10 31 -11 -22 32 30 0
-22 -14 31 -11 -26 32 30 0
24 -14 31 -11 -22 -26 32 30 0
-26 -14 31 -11 -22 32 30 0
-22 11 31 14 10 -26 32 30 0
24 11 31 14 10 -22 -26 32 30 0
-26 11 31 14 10 -22 32 30 0
-22 -10 31 -14 -26 32 30 0
24 -10 31 -14 -22 -26 32 30 0
-26 -10 31 -14 -22 32 30 0
-22 11 31 -10 -14 -26 32 30 0
24 11 31 -10 -14 -22 -26 32 30 0
-26 11 31 -10 -14 -22 32 30 0
-22 -14 31 -10 -26 32 30 0
24 -14 31 -10 -22 -26 32 30 0
-26 -14 31 -10 -22 32 30 0
-22 -10 -30 -11 -24 -32 0
-26 -10 -30 -11 -24 -32 0
-22 -14 -30 -11 -24 -32 0
-26 -14 -30 -11 -24 -32 0
-22 -10 31 -11 -24 -30 -32 0
-26 -10 31 -11 -24 -30 -32 0
-22 -14 31 -11 -24 -30 -32 0
-26 -14 31 -11 -24 -30 -32 0
-22 -10 -32 -11 -24 -30 0
-26 -10 -32 -11 -24 -30 0
-22 -14 -32 -11 -24 -30 0
-26 -14 -32 -11 -24 -30 0
-22 11 -30 14 10 -24 -32 0
-26 11 -30 14 10 -24 -32 0
-22 11 31 14 10 -24 -30 -32 0
-26 11 31 14 10 -24 -30 -32 0
-22 11 -32 14 10 -24 -30 0
-26 11 -32 14 10 -24 -30 0
-22 -10 -30 -14 -24 -32 0
-26 -10 -30 -14 -24 -32 0
-22 11 -30 -10 -14 -24 -32 0
-26 11 -30 -10 -14 -24 -32 0
-22 -14 -30 -10 -24 -32 0
-26 -14 -30 -10 -24 -32 0
-22 -10 31 -14 -24 -30 -32 0
-26 -10 31 -14 -24 -30 -32 0
-22 11 31 -10 -14 -24 -30 -32 0
-26 11 31 -10 -14 -24 -30 -32 0
-22 -14 31 -10 -24 -30 -32 0
-26 -14 31 -10 -24 -30 -32 0
-22 -10 -32 -14 -24 -30 0
-26 -10 -32 -14 -24 -30 0
-22 11 -32 -10 -14 -24 -30 0
-26 11 -32 -10 -14 -24 -30 0
-22 -14 -32 -10 -24 -30 0
-26 -14 -32 -10 -24 -30 0
24 -10 -30 -11 26 22 -32 0
24 -14 -30 -11 26 22 -32 0
24 -10 31 -11 26 22 -30 -32 0
24 -14 31 -11 26 22 -30 -32 0
24 -10 -32 -11 26 22 -30 0
24 -14 -32 -11 26 22 -30 0
24 11 -30 14 10 26 22 -32 0
24 11 31 14 10 26 22 -30 -32 0
24 11 -32 14 10 26 22 -30 0
24 -10 -30 -14 26 22 -32 0
24 11 -30 -10 -14 26 22 -32 0
24 -14 -30 -10 26 22 -32 0
24 -10 31 -14 26 22 -30 -32 0
24 11 31 -10 -14 26 22 -30 -32 0
24 -14 31 -10 26 22 -30 -32 0
24 -10 -32 -14 26 22 -30 0
24 11 -32 -10 -14 26 22 -30 0
24 -14 -32 -10 26 22 -30 0
-22 -10 -30 -11 -26 -32 0
24 -10 -30 -11 -22 -26 -32 0
-26 -10 -30 -11 -22 -32 0
-22 -14 -30 -11 -26 -32 0
24 -14 -30 -11 -22 -26 -32 0
-26 -14 -30 -11 -22 -32 0
-22 -10 31 -11 -26 -30 -32 0
24 -10 31 -11 -22 -26 -30 -32 0
-26 -10 31 -11 -22 -30 -32 0
-22 -14 31 -11 -26 -30 -32 0
24 -14 31 -11 -22 -26 -30 -32 0
-26 -14 31 -11 -22 -30 -32 0
-22 -10 -32 -11 -26 -30 0
24 -10 -32 -11 -22 -26 -30 0
-26 -10 -32 -11 -22 -30 0
-22 -14 -32 -11 -26 -30 0
24 -14 -32 -11 -22 -26 -30 0
-26 -14 -32 -11 -22 -30 0
-22 11 -30 14 10 -26 -32 0
24 11 -30 14 10 -22 -26 -32 0
-26 11 -30 14 10 -22 -32 0
-22 11 31 14 10 -26 -30 -32 0
24 11 31 14 10 -22 -26 -30 -32 0
-26 11 31 14 10 -22 -30 -32 0
-22 11 -32 14 10 -26 -30 0
24 11 -32 14 10 -22 -26 -30 0
-26 11 -32 14 10 -22 -30 0
-22 -10 -30 -14 -26 -32 0
24 -10 -30 -14 -22 -26 -32 0
-26 -10 -30 -14 -22 -32 0
-22 11 -30 -10 -14 -26 -32 0
24 11 -30 -10 -14 -22 -26 -32 0
-26 11 -30 -10 -14 -22 -32 0
-22 -14 -30 -10 -26 -32 0
24 -14 -30 -10 -22 -26 -32 0
-26 -14 -30 -10 -22 -32 0
-22 -10 31 -14 -26 -30 -32 0
24 -10 31 -14 -22 -26 -30 -32 0
-26 -10 31 -14 -22 -30 -32 0
-22 11 31 -10 -14 -26 -30 -32 0
24 11 31 -10 -14 -22 -26 -30 -32 0
-26 11 31 -10 -14 -22 -30 -32 0
-22 -14 31 -10 -26 -30 -32 0
24 -14 31 -10 -22 -26 -30 -32 0
-26 -14 31 -10 -22 -30 -32 0
-22 -10 -32 -14 -26 -30 0
24 -10 -32 -14 -22 -26 -30 0
-26 -10 -32 -14 -22 -30 0
-22 11 -32 -10 -14 -26 -30 0
24 11 -32 -10 -14 -22 -26 -30 0
-26 11 -32 -10 -14 -22 -30 0
-22 -14 -32 -10 -26 -30 0
24 -14 -32 -10 -22 -26 -30 0
-26 -14 -32 -10 -22 -30 0
c invalid vars
-1 0
-2 0
-3 0
-4 0
-5 0
-6 0
-7 0
-8 0
-9 0
-19 0
-29 0
-39 0
-15 0
-25 0
-35 0
-30 0
-16 0
-21 0
-34 0
-12 0
-20 0
-36 0
1 2 3 4 5 6 7 8 9 -10 11 12 13 14 15 16 17 18 19 20 21 22 23 -24 25 26 27 28 29 30 31 -32 33 34 35 36 37 38 39 0
